param n := 15 ;

param y :=
1 137
2 201
3 152
4 107
5 150
6 173
7 194
8 166
9 154
10 137
11 38
12 193
13 154
14 175
15 247;

param x :=
1 38
2 56
3 50
4 52
5 37
6 60
7 67
8 54
9 59
10 43
11 30
12 53
13 59
14 40
15 65;